x09m05e0t1tp5
3221
3221
3221
3221
3221
3221
3290
3290
3290
3290
3290
3290
3290
3290
3290
3290
3290
3290
3290
3290
3290
3290
3290
3327
3327
3327
3327
3327
3327
3327
3327
3327
3327
3327
3327
3327
3327
3327
3327
3327
3327
3327
3327
3327
3407
3407
3407
3407
3407
3407
3407
3407
3407
3407
3407
3407
3407
3407
3407
3407
3407
3407
3407
3407
3407
3407
3407
3407
3407
3407
3407
3407
3407
3407
3407
3407
3407
3407
3407
3407
3407
3407
3407
3407
3407
3407
3407
3407
3407
3407
3407
3407
3407
3407
3407
3407
3407
3517
3517
3517
3517
3533
3533
3533
3533
3533
3533
3533
3533
3533
3533
3533
3533
3533
3533
3533
3533
3533
3533
3533
3533
3533
3533
3533
3533
3533
3533
3533
3533
3533
3533
3533
3533
3533
3533
3533
3533
3533
3533
3533
3533
3533
3533
3533
3533
3533
3591
3591
3591
3591
3591
3591
3591
3591
3591
3591
3591
3591
3591
3591
3591
3591
3591
3591
3591
3591
3591
3591
3591
3591
3591
3591
3591
3591
3591
3591
3591
3591
3591
3591
3591
3591
3591
3591
3591
3591
3591
3591
3591
3591
3591
3591
3591
3591
3591
3591
3591
3591
3591
3591
3591
3591
3591
3591
3591
3591
3591
3591
3591
3591
3591
3591
3591
3591
3591
3591
3591
3591
3591
3591
3591
3591
3591
3591
3591
3591
3591
3591
3591
3591
3591
3591
3591
3591
3591
3591
3591
3591
3591
3591
3591
3591
3591
3591
3591
3591
3591
3591
3591
3591
3591
3591
3591
3591
3591
3591
3591
3591
3591
3591
3591
3591
3591
3591
3591
3591
3591
3591
3591
3591
3591
3591
3591
3591
3591
3591
3591
3591
3591
3591
3591
3591
3591
3591
3591
3591
3591
3591
3591
3591
3591
3591
3591
3591
3591
3591
3591
3591
3591
3591
3591
3591
3591
3591
3591
3591
3591
3591
3591
3591
3591
3591
3591
3591
3591
3591
3591
3591
3591
3591
3591
3591
3591
3591
3591
3591
3591
3591
3591
3591
3591
3591
3591
3591
3591
3591
3591
3591
3591
3591
3591
3591
3591
3591
3591
3591
3591
3591
3591
3591
3591
3591
3591
3591
3591
3591
3591
3591
3591
3591
3591
3591
3591
3591
3591
3591
3591
3591
3591
3591
3591
3591
3591
3591
3591
3591
3591
3591
3591
3591
3591
3591
3591
3591
3591
3591
3591
3591
3591
3591
3591
3591
3591
3591
3591
3591
3591
3591
3591
3591
3591
3591
3591
3591
3591
3591
3591
3591
3591
3591
3591
3591
3591
3591
3591
3591
3591
3591
3591
3591
3591
3591
3591
3591
3591
3591
3591
3591
3591
3591
3591
3591
3591
3591
3591
3591
3591
3591
3591
3591
3591
3591
3591
3591
3591
3591
3591
3591
3591
3591
3591
3591
3591
3591
3591
3591
3591
3591
3591
3591
3591
3591
3591
3591
3591
3591
3591
3591
3591
3591
3591
3591
3591
3591
3591
3591
3591
3591
3591
3591
3591
3591
3591
3591
3591
3591
3591
3591
3591
3591
3591
3591
3591
3591
3591
3591
3591
3591
3591
3591
3591
3591
3591
3591
3591
3591
3591
3591
3591
3591
3591
3591
3591
3591
3591
3591
3591
3591
3591
3591
3591
3591
3591
3591
3591
3591
3591
3591
3591
3591
3591
3591
3591
3591
3591
3591
3591
3591
3591
3591
3591
3591
3591
3591
3591
3591
3591
3591
3591
3591
3591
3591
3591
3591
3591
3591
3591
3591
3591
3591
3591
3591
3591
3591
3591
3591
3591
3591
3591
3591
3591
3591
3591
3591
3591
3591
3591
3591
3591
3591
3591
3591
3591
3591
3591
3591
3591
3591
3591
3591
3591
3591
3591
3591
3591
3591
3591
3591
3591
3591
3591
3591
3591
3591
3591
3591
3591
3591
3591
3591
3591
3591
3591
3591
3591
3591
3591
3591
3591
3591
3591
3591
3591
3591
3591
3591
3591
3591
3591
3591
3591
3591
3591
3591
3591
3591
3591
3591
3591
3591
3591
3591
3591
3591
3591
3591
3591
3591
3591
3591
3591
3591
3591
3591
3591
3591
3591
3591
3591
3591
3591
3591
3591
3591
3591
3591
3591
3591
3591
3591
3591
3591
3591
3591
3591
3591
3591
3591
3591
3591
3591
3591
3591
3591
3591
3591
3591
3591
3591
3591
3591
3591
3591
3591
3591
3591
3591
3591
3591
3591
3591
3591
3591
3591
3591
3591
3591
3591
3591
3591
3591
3591
3591
3591
3591
3591
3591
3591
3591
3591
3591
3591
3591
3591
3591
3591
3591
3591
3591
3591
3591
3591
3591
3591
3591
3591
3591
3591
3591
3591
3591
3591
3591
3591
3591
3591
3591
3591
3591
3591
3591
3591
3591
3591
3591
3591
3591
3591
3591
3591
3591
3591
3591
3591
3591
3591
3591
3591
3591
3591
3591
3591
3591
3591
3603
3603
3603
3603
3603
3603
3603
3603
3603
3603
3603
3603
3603
3603
3603
3603
3603
3603
3603
3603
3603
3603
3603
3603
3603
3603
3603
3603
3603
3603
3603
3603
3603
3603
3603
3603
3603
3603
3603
3603
3603
3603
3603
3603
3603
3603
3603
3603
3603
3603
3603
3603
3603
3603
3603
3603
3603
3603
3603
3603
3603
3603
3603
3603
3603
3603
3603
3603
3603
3603
3603
3603
3603
3603
3603
3603
3603
3603
3603
3603
3603
3603
3603
3603
3603
3603
3603
3603
3603
3603
3603
3603
3603
3603
3603
3603
3603
3603
3603
3603
3603
3603
3603
3603
3603
3603
3603
3603
3603
3603
3603
3603
3603
3603
3603
3603
3603
3603
3603
3603
3603
3603
3603
3603
3603
3603
3603
3603
3603
3603
3603
3603
3603
3603
3603
3603
3603
3603
3603
3603
3603
3603
3603
3603
3603
3603
3603
3603
3603
3603
3603
3603
3603
3603
3603
3603
3603
3603
3603
3603
3603
3603
3603
3603
3603
3603
3603
3603
3603
3603
3603
3603
3603
3603
3603
3603
3603
3603
3603
3603
3603
3603
3603
3603
3603
3603
3603
3603
3603
3603
3603
3603
3603
3603
3603
3603
3603
3603
3603
3603
3603
3603
3603
3603
3603
3603
3603
3603
3603
3603
3603
3603
3603
3603
3603
3603
3603
3603
3603
3603
3603
3603
3603
3603
3603
3603
